rc101_3
0 42 46 81 82 92 14 91 79 2 57 63 53 35 34 37 31 39 55 32 38 89 30 26 80 64 16 2 2 2 2 2 19 21 83 50 103 18 25 56 33 41 49 48 13 7 51 8 11 10 9 1 12 84 1 1 1 6 1 44 45 40 43 72 67 68 90 28 24 54 29 27 2 2 2 2 2 2 2 22 17 2 2 2 2 2 20 52 71 23 0 0 0 0